NAME : straight_line_constant_60_1_1_1.tsp
COMMENT : straight_line_constant_60_1_1_1.tsp
TYPE : TSP
DIMENSION : 60
EDGE_WEIGHT_TYPE : EUC_2D
NODE_COORD_SECTION
1 100.000000 100.000000
2 101.000000 101.000000
3 102.000000 102.000000
4 103.000000 103.000000
5 104.000000 104.000000
6 105.000000 105.000000
7 106.000000 106.000000
8 107.000000 107.000000
9 108.000000 108.000000
10 109.000000 109.000000
11 110.000000 110.000000
12 111.000000 111.000000
13 112.000000 112.000000
14 113.000000 113.000000
15 114.000000 114.000000
16 115.000000 115.000000
17 116.000000 116.000000
18 117.000000 117.000000
19 118.000000 118.000000
20 119.000000 119.000000
21 120.000000 120.000000
22 121.000000 121.000000
23 122.000000 122.000000
24 123.000000 123.000000
25 124.000000 124.000000
26 125.000000 125.000000
27 126.000000 126.000000
28 127.000000 127.000000
29 128.000000 128.000000
30 129.000000 129.000000
31 130.000000 130.000000
32 131.000000 131.000000
33 132.000000 132.000000
34 133.000000 133.000000
35 134.000000 134.000000
36 135.000000 135.000000
37 136.000000 136.000000
38 137.000000 137.000000
39 138.000000 138.000000
40 139.000000 139.000000
41 140.000000 140.000000
42 141.000000 141.000000
43 142.000000 142.000000
44 143.000000 143.000000
45 144.000000 144.000000
46 145.000000 145.000000
47 146.000000 146.000000
48 147.000000 147.000000
49 148.000000 148.000000
50 149.000000 149.000000
51 150.000000 150.000000
52 151.000000 151.000000
53 152.000000 152.000000
54 153.000000 153.000000
55 154.000000 154.000000
56 155.000000 155.000000
57 156.000000 156.000000
58 157.000000 157.000000
59 158.000000 158.000000
60 159.000000 159.000000
EOF